column=7;
row=7;
max=5;
left=[2, 1, 0, 3, 1, 5, 3];
right=[1, 0, 0, 2, 0, 4, 0];
top=[0, 0, 0, 4, 3, 0, 0];
bottom=[3, 5, 0, 1, 2, 3, 4];
Board=[|0,4,5,0,3,0,0|0,0,2,0,0,0,3|4,0,3,0,0,2,5|0,0,0,5,0,1,0|1,2,0,0,0,4,0|5,0,0,2,0,3,0|0,5,4,0,2,0,0|]